p tw 90 97
1 2
2 3
11 12
11 36
12 13
13 14
14 15
15 16
16 17
17 18
18 19
19 20
20 21
20 29
3 4
21 22
22 23
23 24
24 25
25 26
26 27
27 28
28 29
28 89
29 30
30 31
4 5
31 32
32 33
33 34
34 35
35 89
36 37
37 38
38 39
39 40
40 41
40 89
5 6
41 42
42 43
43 44
44 45
45 46
46 47
47 48
48 49
49 50
49 76
50 51
6 7
51 52
52 53
53 54
54 55
55 56
56 57
57 58
58 59
59 60
60 61
7 8
7 89
61 62
62 63
63 64
64 65
64 87
65 66
66 67
67 68
68 69
69 70
70 71
8 9
71 72
72 73
73 74
74 75
75 87
76 77
77 78
78 79
79 80
80 81
9 10
81 82
82 83
83 84
84 85
84 87
85 86
86 87
87 88
88 89
89 90
10 11
